StudentsNr = 10;
InstructorsNr = 77;
DaysNr = 1;
SlotsPerDay = 10;
AvailabilitySlotsLenght = 10;
RoomNr = 1;
ProgrammNr = 1;
DegreeNr = 3;
RolesNr = 3;
CoursesNr = 10;
InstructorsProgramm = [{1}, {1}, {1}, {1}, {1}, {1}, {1}, {1}, {1}, {1}, {1}, {1}, {1}, {1}, {1}, {1}, {1}, {1}, {1}, {1}, {1}, {1}, {1}, {1}, {1}, {1}, {1}, {1}, {1}, {1}, {1}, {1}, {1}, {1}, {1}, {1}, {1}, {1}, {1}, {1}, {1}, {1}, {1}, {1}, {1}, {1}, {1}, {1}, {1}, {1}, {1}, {1}, {1}, {1}, {1}, {1}, {1}, {1}, {1}, {1}, {1}, {1}, {1}, {1}, {1}, {1}, {1}, {1}, {1}, {1}, {1}, {1}, {1}, {1}, {1}, {1}, {1}];
InstructorRolesPerProgramm = [|{1, 6, 7, 8, 10, 11, 12, 14, 19, 20, 21, 22, 26, 28, 32, 35, 39, 41, 44, 45, 46, 48, 49, 52, 53, 54, 56, 57, 58, 59, 60, 64, 65, 67, 71, 73, 74, 75, 76}, {2, 3, 5, 6, 7, 8, 9, 11, 12, 14, 15, 16, 17, 19, 20, 21, 22, 23, 24, 29, 31, 33, 36, 40, 50, 51, 53, 54, 57, 58, 60, 61, 64, 67, 70, 72, 74, 76, 77}, {1, 4, 7, 9, 10, 12, 16, 19, 23, 26, 28, 29, 32, 33, 37, 38, 40, 41, 51, 52, 54, 59, 60, 68, 71, 72, 75, 77}|];
InstructorsAvailability = [|1, |1, |1, |1, |0, |0, |1, |0, |0, |0, |1, |0, |0, |0, |1, |1, |1, |0, |1, |1, |1, |1, |1, |1, |0, |0, |0, |0, |0, |0, |1, |0, |1, |0, |0, |0, |1, |0, |0, |0, |0, |0, |0, |0, |0, |1, |0, |1, |1, |0, |1, |1, |1, |0, |1, |1, |0, |0, |1, |0, |0, |0, |0, |0, |0, |1, |0, |1, |1, |1, |0, |1, |1, |1, |1, |0, |0|];
StudentsProgramm = [1, 1, 1, 1, 1, 1, 1, 1, 1, 1];
StudentsDegree = [3, 2, 3, 2, 3, 1, 2, 1, 3, 3];
StudentsSupervisorId = [15, 77, 9, 69, 31, 23, 26, 67, 66, 12];
StudentsCourseIds = [{}, {1, 2, 3, 4, 5, 6, 7, 8, 9, 10}, {}, {1, 2, 3, 4, 5, 6, 7, 8, 9, 10}, {}, {1, 2, 3, 4, 5, 6, 7, 8, 9, 10}, {1, 2, 3, 4, 5, 6, 7, 8, 9, 10}, {1, 2, 3, 4, 5, 6, 7, 8, 9, 10}, {}, {}];
StudentsAvailability = [|0, |0, |0, |1, |0, |1, |0, |0, |1, |0|];
TheoryticalMinCard = [0, 0, 0, 0, 0, 0, 0, 0, 1, 0];
CoursesInstructorIds = [{2, 3, 5, 6, 8, 9, 11, 12, 13, 15, 18, 20, 26, 29, 30, 37, 38, 39, 40, 41, 42, 44, 45, 48, 50, 51, 52, 53, 55, 56, 57, 59, 62, 65, 67, 68, 74, 76, 77}, {8, 10, 11, 12, 18, 21, 30, 32, 34, 47, 50, 52, 53, 55, 61, 62, 64, 66, 67, 68}, {1, 5, 6, 7, 11, 15, 19, 20, 22, 23, 28, 30, 32, 33, 34, 43, 45, 47, 48, 49, 53, 56, 57, 59, 60, 62, 63, 64, 67, 68, 69, 70, 74, 75}, {2, 4, 5, 7, 9, 13, 18, 20, 23, 24, 28, 29, 30, 32, 38, 40, 44, 45, 46, 48, 49, 51, 54, 55, 56, 58, 60, 69, 70, 73, 75, 77}, {2, 4, 11, 12, 14, 15, 20, 23, 27, 28, 30, 33, 34, 36, 38, 40, 41, 42, 43, 46, 50, 55, 56, 57, 62, 64, 67, 69, 70, 71, 77}, {1, 2, 5, 7, 8, 10, 12, 13, 17, 21, 22, 23, 26, 27, 31, 32, 33, 34, 35, 37, 38, 39, 40, 41, 44, 45, 47, 48, 49, 50, 52, 53, 56, 57, 59, 60, 61, 62, 63, 64, 66, 71, 73, 75, 77}, {3, 9, 18, 33, 77}, {2, 9, 13, 16, 18, 21, 22, 24, 25, 29, 30, 31, 34, 40, 42, 43, 45, 47, 48, 49, 50, 51, 52, 56, 57, 58, 59, 60, 61, 64, 68, 69, 70, 72, 76, 77}, {2, 5, 6, 8, 9, 10, 11, 13, 15, 16, 17, 18, 19, 20, 21, 22, 23, 24, 25, 27, 28, 29, 30, 32, 34, 35, 39, 40, 41, 42, 43, 44, 48, 49, 50, 51, 54, 55, 56, 57, 58, 60, 64, 66, 67, 70, 71, 72, 74, 75}, {3, 4, 9, 12, 16, 18, 22, 31, 33, 35, 41, 47, 56, 58, 65, 68, 70}];
RolesDemands = [36, 29, 25];
RolesContinuity = [2];
ExamLen = [1, 2, 1, 2, 1, 2, 2, 2, 1, 1];
LunchTsMinLen = 1;
LunchStarts = [2..7];
SupervisorAvailable = 0;
OptimalLunchLenght = [1, 1];
OptimalStartTs = [0, 0];
OptimalFinishTs = [1, 10];
MinimizeRooms = 0;
RolesSoftContinuity = [|1, 2, 3|2, 2, 0|];
SameDegreeInRoom = 10;
Mergeability = 0;
